





























































































29 4 69 2 
14 20 74 37 
17 23 31 47 10 
28 21 7 
6 59 60 3 
11 34 38 61 
75 18 44 52 
73 0 39 13 
66 57 50 67 
71 16 49 48 
63 19 24 45 
51 65 35 
9 32 76 40 
53 15 46 42 
43 27 22 8 
12 58 62 25 
55 5 68 
33 70 36 1 

26 54 30 
41 72 64 56 
